50
    47    15     6    52    53     5     7    83    93    64    28    95    42    49    63    25    39     6    22    55    91    74    32     4    67    80    33    33     6    44    83    45    10    74    55    80    46    72    37    23    48    27    34    97    16    21    63    66    15    26
     2     6     8     5     4     7     3     2     4     1     2     7     9     3     5    10     2     5    10     2    10     7     6     8     5     5     9     5     4     3     1    10     9     2     5     6     3    10     1     4     1     3     3    10     5     3     2     2     8     9
  1402  1513  1276  1484  1459  1203  1147  1537  1485  1299  1337  1181  1537  1512  1172  1447  1507  1568  1537  1354  1252  1134  1515  1315  1387  1323  1548  1381  1176  1476  1432  1518  1565  1569  1224  1187  1278  1238  1484  1414  1202  1282  1496  1241  1372  1350  1295  1131  1326  1441
